NAME : pr10.tsp
COMMENT : 10-city problem
TYPE : TSP 
DIMENSION : 10
EDGE_WEIGHT_TYPE : EUC_2D
NODE_COORD_SECTION 
1  8.619200e+04 6.523000e+04 
2  8.328700e+04 1.046500e+04 
3  8.747800e+04 5.367900e+04 
4  4.266100e+04 6.890800e+04 
5  5.402000e+03 5.416000e+04 
6  3.587100e+04 1.111800e+04 
7  2.437200e+04 8.816800e+04 
8  2.300000e+04 8.443700e+04 
9  1.750000e+04 7.303900e+04 
10 2.171200e+04 7.938800e+04 
EOF 
